Optimal - objective value -24.25020000
  33375 itb[0]                                        100                      0
  33376 itb[1]                                        100                      0
  33377 itb[2]                                        100                      0
  33378 itb[3]                                        100                      0
  33379 itb[4]                                        100                      0
  33380 itb[5]                                        100                      0
  33381 itb[6]                                        100                      0
  33382 itb[7]                                        100                      0
  33383 itb[8]                                        100                      0
